(declare-fun temp2882_1 () (_ BitVec 64))
(declare-fun var66699 () (_ BitVec 64))
(declare-fun temp2882_3 () (_ BitVec 64))
(declare-fun temp2882_2 () (_ BitVec 64))
(declare-fun temp2882_4 () (_ BitVec 64))
(declare-fun var398282 () (_ BitVec 64))
(declare-fun temp2882_6 () (_ BitVec 64))
(declare-fun temp2882_5 () (_ BitVec 64))
(declare-fun temp2882_8 () (_ BitVec 64))
(declare-fun temp2882_7 () (_ BitVec 64))
(declare-fun temp2882_9 () (_ BitVec 64))
(declare-fun var1119178 () (_ BitVec 64))
(declare-fun var74105 () (_ BitVec 64))
(declare-fun var74107 () (_ BitVec 64))
(declare-fun temp2882_11 () (_ BitVec 64))
(declare-fun temp2882_10 () (_ BitVec 64))
(declare-fun temp2882_12 () (_ BitVec 64))
(declare-fun var74393 () (_ BitVec 64))
(declare-fun var2630521 () (_ BitVec 64))
(declare-fun temp2882_13 () (_ BitVec 64))
(declare-fun var2630525 () (_ BitVec 64))
(declare-fun var74406 () (_ BitVec 64))
(declare-fun temp2882_14 () (_ BitVec 64))
(declare-fun var3154809 () (_ BitVec 64))
(declare-fun temp2882_15 () (_ BitVec 64))
(declare-fun var3154813 () (_ BitVec 64))
(declare-fun temp2882_16 () (_ BitVec 64))
(declare-fun var3154853 () (_ BitVec 64))
(declare-fun temp2882_17 () (_ BitVec 64))
(declare-fun var74420 () (_ BitVec 64))
(declare-fun var74423 () (_ BitVec 64))
(assert (= temp2882_1 #x0000000000000000))
(assert (= var66699 temp2882_1))
(assert (= temp2882_3 #x0000000000000000))
(assert (= temp2882_2 temp2882_3))
(assert (= temp2882_4 #x0000000000000000))
(assert (= var398282 temp2882_4))
(assert (= temp2882_6 #x0000000000000000))
(assert (= temp2882_5 temp2882_6))
(assert (= temp2882_8 #x0000000000000000))
(assert (= temp2882_7 temp2882_8))
(assert (= temp2882_9 #x0000000000000000))
(assert (= var1119178 temp2882_9))
(assert (= var74105 var66699))
(assert (= var74107 var66699))
(assert (= temp2882_11 #x0000000000000002))
(assert (= temp2882_10 temp2882_11))
(assert (= temp2882_12 #x0000000000000000))
(assert (= var66699 temp2882_12))
(assert (= var74393 var66699))
(assert (= var2630521 var66699))
(assert (= temp2882_13 #x0000000000000001))
(assert (= var2630525 temp2882_13))
(assert (= var74406 var66699))
(assert (= temp2882_14 #x0000000000000001))
(assert (= var3154809 temp2882_14))
(assert (= temp2882_15 #x0000000000000001))
(assert (= var3154813 temp2882_15))
(assert (= temp2882_16 #x0000000000000000))
(assert (= var3154853 temp2882_16))
(assert (= temp2882_17 #x0000000000000000))
(assert (= var3154853 temp2882_17))
(assert (= var74420 var66699))
(assert (= var74423 var66699))
(model-add temp2882_1 () (_ BitVec 64) #x0000000000000000)
(model-add var66699 () (_ BitVec 64) #x0000000000000000)
(model-add temp2882_3 () (_ BitVec 64) #x0000000000000000)
(model-add temp2882_2 () (_ BitVec 64) #x0000000000000000)
(model-add temp2882_4 () (_ BitVec 64) #x0000000000000000)
(model-add var398282 () (_ BitVec 64) #x0000000000000000)
(model-add temp2882_6 () (_ BitVec 64) #x0000000000000000)
(model-add temp2882_5 () (_ BitVec 64) #x0000000000000000)
(model-add temp2882_8 () (_ BitVec 64) #x0000000000000000)
(model-add temp2882_7 () (_ BitVec 64) #x0000000000000000)
(model-add temp2882_9 () (_ BitVec 64) #x0000000000000000)
(model-add var1119178 () (_ BitVec 64) #x0000000000000000)
(model-add var74105 () (_ BitVec 64) #x0000000000000000)
(model-add var74107 () (_ BitVec 64) #x0000000000000000)
(model-add temp2882_11 () (_ BitVec 64) #x0000000000000002)
(model-add temp2882_10 () (_ BitVec 64) #x0000000000000002)
(model-add temp2882_12 () (_ BitVec 64) #x0000000000000000)
(model-add var74393 () (_ BitVec 64) #x0000000000000000)
(model-add var2630521 () (_ BitVec 64) #x0000000000000000)
(model-add temp2882_13 () (_ BitVec 64) #x0000000000000001)
(model-add var2630525 () (_ BitVec 64) #x0000000000000001)
(model-add var74406 () (_ BitVec 64) #x0000000000000000)
(model-add temp2882_14 () (_ BitVec 64) #x0000000000000001)
(model-add var3154809 () (_ BitVec 64) #x0000000000000001)
(model-add temp2882_15 () (_ BitVec 64) #x0000000000000001)
(model-add var3154813 () (_ BitVec 64) #x0000000000000001)
(model-add temp2882_16 () (_ BitVec 64) #x0000000000000000)
(model-add var3154853 () (_ BitVec 64) #x0000000000000000)
(model-add temp2882_17 () (_ BitVec 64) #x0000000000000000)






